networks/zoo_86_1084/zoo_86_1084-lower.txt
Number of groups: 39
Flow 10: {38 12 0} {12 55 1} 
Flow 15: {1 17 0} {17 18 1} {18 61 2} 
Flow 17: {37 20 0} {20 63 1} 
Flow 18: {40 39 0} {39 22 1} {22 65 2} 
Flow 31: {17 36 0} {36 79 1} 
Flow 36: {42 41 0} {41 84 1} 
Flow 66: {4 1 0} {1 5 1} {5 6 2} {6 8 3} {8 51 4} 
Flow 141: {9 29 0} {29 30 1} {30 73 2} 
Flow 162: {16 39 0} {39 38 1} {38 11 2} {11 54 3} 
Flow 243: {11 38 0} {38 81 1} 
Flow 260: {12 38 0} {38 39 1} {39 40 2} {40 83 3} 
Flow 385: {18 17 0} {17 1 1} {1 44 2} 
Flow 400: {26 27 0} {27 70 1} 
Flow 404: {30 28 0} {28 32 1} {32 33 2} {33 76 3} 
Flow 413: {35 34 0} {34 40 1} {40 43 2} {43 86 3} 
Flow 433: {19 37 0} {37 80 1} 
Flow 451: {20 37 0} {37 39 1} {39 23 2} {23 66 3} 
Flow 479: {22 39 0} {39 37 1} {37 19 2} {19 62 3} 
Flow 501: {34 35 0} {35 3 1} {3 4 2} {4 47 3} 
Flow 518: {23 39 0} {39 82 1} 
Flow 543: {25 31 0} {31 32 1} {32 28 2} {28 71 3} 
Flow 548: {2 13 0} {13 43 1} {43 40 2} {40 34 3} {34 77 4} 
Flow 560: {5 1 0} {1 4 1} {4 3 2} {3 46 3} 
Flow 562: {29 9 0} {9 6 1} {6 49 2} 
Flow 568: {7 14 0} {14 15 1} {15 16 2} {16 59 3} 
Flow 597: {28 30 0} {30 29 1} {29 72 2} 
Flow 598: {27 26 0} {26 33 1} {33 32 2} {32 31 3} {31 74 4} 
Flow 600: {3 35 0} {35 78 1} 
Flow 605: {43 42 0} {42 85 1} 
Flow 678: {8 7 0} {7 50 1} 
Flow 690: {33 26 0} {26 69 1} 
Flow 740: {6 5 0} {5 48 1} 
Flow 776: {31 25 0} {25 24 1} {24 7 2} {7 2 3} {2 45 4} 
Flow 818: {39 16 0} {16 15 1} {15 14 2} {14 57 3} 
Flow 879: {36 17 0} {17 60 1} 
Flow 882: {24 25 0} {25 68 1} 
Flow 929: {14 7 0} {7 8 1} {8 6 2} {6 9 3} {9 52 4} 
Flow 1026: {41 42 0} {42 43 1} {43 13 2} {13 56 3} 
Flow 1030: {13 2 0} {2 7 1} {7 24 2} {24 67 3} 
Time taken running everything: 3 seconds
