networks/zoo_86_1084/zoo_86_1084-lower.sol
<?xml version = "1.0" encoding="UTF-8" standalone="yes"?>
<CPLEXSolution version="1.2">
 <header
   problemName="networks/zoo_86_1084/zoo_86_1084-lower.lp"
   solutionName="incumbent"
   solutionIndex="-1"
   objectiveValue="39"
   solutionTypeValue="3"
   solutionTypeString="primal"
   solutionStatusValue="101"
   solutionStatusString="integer optimal solution"
   solutionMethodString="mip"
   primalFeasible="1"
   dualFeasible="1"
   MIPNodes="0"
   MIPIterations="0"
   writeLevel="3"/>
 <quality
   epInt="1.0000000000000001e-05"
   epRHS="9.9999999999999995e-07"
   maxIntInfeas="0"
   maxPrimalInfeas="0"
   maxX="1"
   maxSlack="1"/>
 <variables>
  <variable name="Y(1,2)" index="1" value="1"/>
  <variable name="Y(2,3)" index="82" value="1"/>
  <variable name="Y(3,4)" index="163" value="1"/>
  <variable name="Y(4,5)" index="244" value="1"/>
  <variable name="Y(5,6)" index="325" value="1"/>
  <variable name="Y(6,7)" index="406" value="1"/>
  <variable name="Y(7,8)" index="487" value="1"/>
  <variable name="Y(8,9)" index="568" value="1"/>
  <variable name="Y(9,11)" index="649" value="1"/>
  <variable name="Y(10,12)" index="730" value="1"/>
  <variable name="Y(11,13)" index="811" value="1"/>
  <variable name="Y(12,14)" index="892" value="1"/>
  <variable name="Y(13,16)" index="974" value="1"/>
  <variable name="Y(14,17)" index="1055" value="1"/>
  <variable name="Y(15,18)" index="1136" value="1"/>
  <variable name="Y(16,19)" index="1217" value="1"/>
  <variable name="Y(17,20)" index="1298" value="1"/>
  <variable name="Y(18,22)" index="1379" value="1"/>
  <variable name="Y(19,23)" index="1460" value="1"/>
  <variable name="Y(20,24)" index="1541" value="1"/>
  <variable name="Y(21,25)" index="1622" value="1"/>
  <variable name="Y(22,26)" index="1703" value="1"/>
  <variable name="Y(23,27)" index="1784" value="1"/>
  <variable name="Y(24,28)" index="1865" value="1"/>
  <variable name="Y(25,29)" index="1946" value="1"/>
  <variable name="Y(26,30)" index="2027" value="1"/>
  <variable name="Y(27,31)" index="2108" value="1"/>
  <variable name="Y(28,33)" index="2190" value="1"/>
  <variable name="Y(29,34)" index="2271" value="1"/>
  <variable name="Y(30,35)" index="2352" value="1"/>
  <variable name="Y(31,36)" index="2433" value="1"/>
  <variable name="Y(32,37)" index="2514" value="1"/>
  <variable name="Y(33,38)" index="2595" value="1"/>
  <variable name="Y(34,39)" index="2676" value="1"/>
  <variable name="Y(35,40)" index="2757" value="1"/>
  <variable name="Y(36,41)" index="2838" value="1"/>
  <variable name="Y(37,42)" index="2919" value="1"/>
  <variable name="Y(38,43)" index="3000" value="1"/>
  <variable name="Y(39,1)" index="3040" value="1"/>
  <variable name="X(1,4,2)" index="86721" value="1"/>
  <variable name="X(1,5,1)" index="87804" value="1"/>
  <variable name="X(1,17,14)" index="88901" value="1"/>
  <variable name="X(1,44,39)" index="90010" value="1"/>
  <variable name="X(2,7,262)" index="91317" value="1"/>
  <variable name="X(2,13,11)" index="92150" value="1"/>
  <variable name="X(2,45,1)" index="93224" value="1"/>
  <variable name="X(3,4,39)" index="94346" value="1"/>
  <variable name="X(3,35,9)" index="95400" value="1"/>
  <variable name="X(3,46,2)" index="96477" value="1"/>
  <variable name="X(4,1,39)" index="97598" value="1"/>
  <variable name="X(4,3,2)" index="98645" value="1"/>
  <variable name="X(4,47,3)" index="99730" value="1"/>
  <variable name="X(5,1,89)" index="100900" value="1"/>
  <variable name="X(5,6,1)" index="101896" value="1"/>
  <variable name="X(5,48,4)" index="102983" value="1"/>
  <variable name="X(6,5,122)" index="104185" value="1"/>
  <variable name="X(6,8,1)" index="105148" value="1"/>
  <variable name="X(6,9,8)" index="106239" value="1"/>
  <variable name="X(6,49,5)" index="107320" value="1"/>
  <variable name="X(7,2,1)" index="108400" value="1"/>
  <variable name="X(7,8,154)" index="109637" value="1"/>
  <variable name="X(7,14,12)" index="110579" value="1"/>
  <variable name="X(7,24,20)" index="111671" value="1"/>
  <variable name="X(7,50,6)" index="112741" value="1"/>
  <variable name="X(8,6,154)" index="113973" value="1"/>
  <variable name="X(8,7,1)" index="114904" value="1"/>
  <variable name="X(8,51,7)" index="115994" value="1"/>
  <variable name="X(9,6,199)" index="117270" value="1"/>
  <variable name="X(9,29,22)" index="118177" value="1"/>
  <variable name="X(9,52,8)" index="119247" value="1"/>
  <variable name="X(11,38,230)" index="120553" value="1"/>
  <variable name="X(11,54,9)" index="121416" value="1"/>
  <variable name="X(12,38,247)" index="122738" value="1"/>
  <variable name="X(12,55,10)" index="123585" value="1"/>
  <variable name="X(13,2,40)" index="124699" value="1"/>
  <variable name="X(13,43,119)" index="125862" value="1"/>
  <variable name="X(13,56,11)" index="126838" value="1"/>
  <variable name="X(14,7,233)" index="128144" value="1"/>
  <variable name="X(14,15,99)" index="129094" value="1"/>
  <variable name="X(14,57,12)" index="130091" value="1"/>
  <variable name="X(15,14,46)" index="131209" value="1"/>
  <variable name="X(15,16,99)" index="132346" value="1"/>
  <variable name="X(16,15,46)" index="133377" value="1"/>
  <variable name="X(16,39,134)" index="134549" value="1"/>
  <variable name="X(16,59,13)" index="135512" value="1"/>
  <variable name="X(17,1,354)" index="136937" value="1"/>
  <variable name="X(17,18,15)" index="137682" value="1"/>
  <variable name="X(17,36,31)" index="138782" value="1"/>
  <variable name="X(17,60,14)" index="139849" value="1"/>
  <variable name="X(18,17,385)" index="141304" value="1"/>
  <variable name="X(18,61,15)" index="142018" value="1"/>
  <variable name="X(19,37,414)" index="143501" value="1"/>
  <variable name="X(19,62,16)" index="144187" value="1"/>
  <variable name="X(20,37,440)" index="145695" value="1"/>
  <variable name="X(20,63,17)" index="146356" value="1"/>
  <variable name="X(22,39,467)" index="147890" value="1"/>
  <variable name="X(22,65,18)" index="148525" value="1"/>
  <variable name="X(23,39,498)" index="150089" value="1"/>
  <variable name="X(23,66,19)" index="150694" value="1"/>
  <variable name="X(24,7,523)" index="152282" value="1"/>
  <variable name="X(24,25,21)" index="152864" value="1"/>
  <variable name="X(24,67,20)" index="153947" value="1"/>
  <variable name="X(25,24,523)" index="155534" value="1"/>
  <variable name="X(25,31,27)" index="156122" value="1"/>
  <variable name="X(25,68,21)" index="157200" value="1"/>
  <variable name="X(26,27,23)" index="158286" value="1"/>
  <variable name="X(26,33,558)" index="159905" value="1"/>
  <variable name="X(26,69,22)" index="160453" value="1"/>
  <variable name="X(27,26,589)" index="162104" value="1"/>
  <variable name="X(27,70,23)" index="162622" value="1"/>
  <variable name="X(28,30,544)" index="164227" value="1"/>
  <variable name="X(28,32,22)" index="164789" value="1"/>
  <variable name="X(28,71,24)" index="165875" value="1"/>
  <variable name="X(29,9,558)" index="167493" value="1"/>
  <variable name="X(29,30,22)" index="168041" value="1"/>
  <variable name="X(29,72,25)" index="169128" value="1"/>
  <variable name="X(30,28,22)" index="170209" value="1"/>
  <variable name="X(30,29,544)" index="171815" value="1"/>
  <variable name="X(30,73,26)" index="172381" value="1"/>
  <variable name="X(31,25,559)" index="173998" value="1"/>
  <variable name="X(31,32,175)" index="174698" value="1"/>
  <variable name="X(31,74,27)" index="175634" value="1"/>
  <variable name="X(32,28,177)" index="176868" value="1"/>
  <variable name="X(32,31,219)" index="177994" value="1"/>
  <variable name="X(32,33,22)" index="178881" value="1"/>
  <variable name="X(33,26,22)" index="179965" value="1"/>
  <variable name="X(33,32,558)" index="181585" value="1"/>
  <variable name="X(33,76,28)" index="182139" value="1"/>
  <variable name="X(34,35,183)" index="183378" value="1"/>
  <variable name="X(34,40,9)" index="184288" value="1"/>
  <variable name="X(34,77,29)" index="185392" value="1"/>
  <variable name="X(35,3,230)" index="186677" value="1"/>
  <variable name="X(35,34,9)" index="187540" value="1"/>
  <variable name="X(35,78,30)" index="188645" value="1"/>
  <variable name="X(36,17,868)" index="190567" value="1"/>
  <variable name="X(36,79,31)" index="190814" value="1"/>
  <variable name="X(37,19,16)" index="191883" value="1"/>
  <variable name="X(37,20,17)" index="192968" value="1"/>
  <variable name="X(37,39,414)" index="194449" value="1"/>
  <variable name="X(37,80,32)" index="195151" value="1"/>
  <variable name="X(38,11,9)" index="196212" value="1"/>
  <variable name="X(38,12,10)" index="197297" value="1"/>
  <variable name="X(38,39,230)" index="198601" value="1"/>
  <variable name="X(38,81,33)" index="199488" value="1"/>
  <variable name="X(39,16,13)" index="200552" value="1"/>
  <variable name="X(39,22,18)" index="201641" value="1"/>
  <variable name="X(39,23,19)" index="202726" value="1"/>
  <variable name="X(39,37,16)" index="203807" value="1"/>
  <variable name="X(39,38,9)" index="204884" value="1"/>
  <variable name="X(39,40,230)" index="206189" value="1"/>
  <variable name="X(39,82,34)" index="207077" value="1"/>
  <variable name="X(40,34,182)" index="208309" value="1"/>
  <variable name="X(40,39,9)" index="209220" value="1"/>
  <variable name="X(40,43,36)" index="210331" value="1"/>
  <variable name="X(40,83,35)" index="211414" value="1"/>
  <variable name="X(41,42,1019)" index="213482" value="1"/>
  <variable name="X(41,84,36)" index="213583" value="1"/>
  <variable name="X(42,41,36)" index="214667" value="1"/>
  <variable name="X(42,43,1019)" index="216734" value="1"/>
  <variable name="X(42,85,37)" index="216836" value="1"/>
  <variable name="X(43,13,40)" index="217923" value="1"/>
  <variable name="X(43,40,150)" index="219117" value="1"/>
  <variable name="X(43,42,36)" index="220087" value="1"/>
  <variable name="X(43,86,38)" index="221173" value="1"/>
 </variables>
</CPLEXSolution>
